/* Objective function */
max: +4 S1 +6.5 S2 +5.9 S3 +5.4 H1 +5.15 H2 +10 H3 +8.4 C1 +6.25 C2;

/* Constraints */
U1: +40 S1 +50 S2 +80 S3 <= 1000;
U2: +60 H1 +45 H2 +60 H3 <= 1000;
U3: +30 C1 +25 C2 <= 1000;
U4: +40 S1 >= 100;
U5: +50 S2 >= 100;
U6: +80 S3 >= 100;
U7: +60 H1 >= 100;
U8: +45 H2 >= 100;
U9: +60 H3 >= 100;
U10: +30 C1 >= 100;
U11: +25 C2 >= 100;
U12: +40 S1 +50 S2 +80 S3 +60 H1 +40 H2 +60 H3 +30 C1 +25 C2 <= 2500;

/* Integer definitions */
int S1,S2,S3,H1,H2,H3,C1,C2;
